NAME: ulysses22.tsp
TYPE: TSP
COMMENT: Shapley Experiment
DIMENSION: 16
EDGE_WEIGHT_TYPE: EUC_2D
DISPLAY_DATA_TYPE: COORD_DISPLAY
NODE_COORD_SECTION
1 416.303 4544.92
2 8348.17 3359.86
3 5654.89 17.6691
4 1875.9 9904.34
5 7504.97 3662.74
6 3512.09 5733.45
7 1325.54 641.665
8 9508.54 1535.6
9 5846.49 2165.88
10 8065.02 1404.73
11 6220.59 2108.93
12 65.7788 5732.99
13 9326.64 3403.27
14 8910.81 5938.73
15 3928.96 8993.23
16 6949.94 2286.03
EOF
